NAME: bip_50_6
TYPE: TSP
COMMENT: bip_50_6
DIMENSION: 50
EDGE_WEIGHT_TYPE: EUC_2D
NODE_COORD_SECTION
1 17 65
2 11 36
3 68 26
4 90 28
5 93 54
6 98 1
7 5 23
8 96 28
9 89 76
10 68 10
11 60 15
12 56 55
13 15 64
14 92 1
15 43 8
16 75 9
17 71 39
18 84 85
19 4 30
20 74 32
21 6 4
22 61 25
23 36 71
24 42 52
25 90 97
26 487 464
27 449 444
28 449 494
29 420 464
30 449 470
31 427 476
32 400 444
33 471 453
34 454 400
35 433 496
36 453 449
37 494 485
38 430 442
39 410 468
40 420 439
41 478 475
42 432 462
43 443 464
44 410 413
45 465 442
46 450 427
47 448 472
48 494 457
49 406 494
50 469 490
